p edge 219 681
e 1 6
e 1 10
e 1 18
e 1 22
e 1 43
e 1 45
e 1 59
e 1 75
e 1 76
e 1 79
e 1 82
e 1 87
e 1 96
e 1 100
e 1 110
e 1 160
e 2 9
e 2 11
e 2 14
e 2 24
e 2 25
e 2 27
e 2 31
e 2 33
e 2 36
e 2 49
e 2 54
e 2 58
e 2 84
e 2 87
e 2 167
e 3 7
e 3 18
e 3 26
e 3 33
e 3 36
e 3 41
e 3 44
e 3 51
e 3 60
e 3 99
e 3 101
e 3 147
e 3 161
e 3 172
e 3 174
e 3 196
e 4 36
e 4 37
e 4 61
e 4 73
e 4 79
e 4 81
e 4 113
e 4 126
e 4 140
e 4 154
e 4 155
e 4 180
e 5 20
e 5 89
e 5 119
e 5 120
e 5 141
e 5 171
e 5 179
e 5 204
e 6 28
e 6 34
e 6 66
e 6 75
e 6 76
e 6 101
e 6 112
e 6 125
e 6 130
e 6 134
e 7 8
e 7 15
e 7 21
e 7 39
e 7 44
e 7 51
e 7 52
e 7 55
e 7 64
e 7 70
e 7 72
e 7 99
e 7 117
e 7 164
e 8 11
e 8 37
e 8 45
e 8 48
e 8 52
e 8 59
e 8 79
e 8 117
e 8 145
e 9 22
e 9 24
e 9 31
e 9 58
e 9 74
e 9 94
e 9 110
e 9 119
e 9 179
e 9 182
e 10 38
e 10 46
e 10 57
e 10 59
e 10 66
e 10 100
e 11 12
e 11 16
e 11 29
e 11 34
e 11 36
e 11 37
e 11 48
e 11 79
e 11 81
e 11 142
e 11 144
e 11 200
e 12 14
e 12 29
e 12 31
e 12 53
e 12 56
e 12 67
e 12 87
e 12 115
e 12 117
e 12 118
e 12 121
e 12 122
e 12 133
e 12 200
e 13 19
e 13 32
e 13 91
e 13 94
e 13 109
e 13 142
e 13 165
e 13 181
e 13 194
e 13 207
e 14 29
e 14 31
e 14 58
e 14 84
e 14 133
e 14 167
e 15 30
e 15 34
e 15 41
e 15 44
e 15 64
e 15 65
e 15 149
e 15 156
e 16 26
e 16 43
e 16 47
e 16 60
e 16 81
e 16 92
e 16 104
e 16 105
e 16 106
e 16 133
e 16 153
e 16 157
e 16 175
e 16 187
e 17 18
e 17 30
e 17 35
e 17 50
e 17 78
e 17 80
e 17 185
e 18 22
e 18 23
e 18 45
e 18 57
e 18 79
e 18 118
e 18 135
e 18 147
e 18 161
e 18 166
e 19 24
e 19 28
e 19 64
e 19 94
e 19 109
e 19 128
e 19 142
e 20 30
e 20 31
e 20 81
e 20 83
e 20 86
e 20 89
e 20 93
e 20 97
e 20 100
e 20 127
e 20 132
e 20 169
e 21 51
e 21 57
e 21 70
e 21 72
e 21 73
e 21 115
e 21 125
e 22 45
e 22 49
e 22 79
e 22 84
e 22 89
e 22 94
e 22 119
e 22 162
e 22 219
e 23 35
e 23 42
e 23 57
e 23 85
e 23 113
e 23 118
e 23 135
e 23 166
e 24 28
e 24 31
e 24 58
e 24 64
e 24 74
e 24 116
e 25 40
e 25 41
e 25 54
e 25 67
e 25 71
e 25 80
e 25 96
e 26 39
e 26 50
e 26 60
e 26 80
e 26 85
e 26 92
e 26 99
e 26 104
e 27 33
e 27 49
e 27 54
e 27 94
e 27 96
e 27 128
e 27 183
e 28 33
e 28 64
e 28 84
e 28 91
e 28 130
e 28 134
e 28 184
e 28 189
e 29 31
e 29 47
e 29 104
e 29 105
e 29 106
e 29 129
e 29 133
e 29 136
e 29 157
e 29 168
e 29 200
e 30 50
e 30 51
e 30 83
e 30 97
e 30 132
e 31 38
e 31 58
e 31 63
e 31 133
e 31 134
e 31 159
e 32 46
e 32 77
e 32 148
e 32 184
e 33 41
e 33 49
e 33 55
e 33 101
e 33 168
e 33 184
e 33 189
e 34 35
e 34 65
e 34 73
e 34 78
e 34 101
e 34 114
e 35 50
e 35 113
e 35 135
e 36 37
e 36 61
e 36 73
e 36 126
e 37 61
e 37 73
e 37 102
e 37 125
e 37 126
e 38 66
e 38 69
e 38 139
e 38 170
e 38 209
e 39 45
e 39 50
e 39 72
e 39 78
e 39 80
e 39 85
e 39 102
e 39 164
e 40 41
e 40 44
e 40 52
e 40 54
e 40 56
e 40 71
e 40 75
e 40 88
e 40 98
e 40 145
e 40 213
e 40 214
e 41 42
e 41 54
e 41 55
e 41 60
e 41 71
e 41 101
e 41 193
e 42 60
e 42 98
e 42 122
e 43 97
e 43 100
e 43 133
e 43 157
e 43 160
e 43 166
e 43 191
e 44 46
e 44 51
e 44 64
e 44 75
e 44 99
e 44 107
e 44 112
e 44 126
e 45 50
e 45 79
e 45 195
e 46 88
e 46 99
e 46 100
e 46 107
e 46 112
e 46 137
e 47 104
e 47 105
e 47 106
e 47 129
e 47 136
e 47 187
e 48 57
e 48 64
e 48 68
e 48 76
e 48 79
e 48 83
e 48 84
e 48 93
e 48 134
e 48 171
e 49 162
e 49 219
e 50 80
e 50 85
e 50 195
e 51 70
e 51 147
e 51 174
e 52 98
e 52 115
e 52 117
e 52 138
e 52 145
e 52 213
e 52 214
e 53 56
e 53 67
e 53 71
e 53 98
e 53 118
e 53 122
e 53 123
e 53 138
e 53 173
e 53 178
e 53 218
e 54 71
e 54 96
e 54 128
e 55 99
e 55 101
e 55 147
e 55 168
e 55 189
e 56 67
e 56 71
e 56 122
e 56 123
e 56 138
e 56 178
e 57 125
e 57 135
e 57 171
e 59 95
e 60 69
e 60 92
e 60 99
e 60 104
e 61 73
e 61 83
e 61 126
e 62 65
e 62 81
e 62 82
e 62 103
e 62 111
e 62 131
e 62 154
e 62 155
e 62 180
e 63 94
e 63 108
e 63 110
e 63 136
e 63 139
e 63 143
e 63 159
e 63 170
e 63 197
e 64 68
e 64 83
e 64 93
e 64 149
e 65 70
e 65 78
e 65 120
e 65 154
e 65 158
e 65 180
e 66 137
e 67 68
e 67 80
e 67 85
e 67 117
e 67 121
e 67 122
e 68 83
e 68 85
e 68 86
e 68 93
e 69 133
e 70 74
e 70 85
e 70 121
e 70 158
e 70 164
e 71 118
e 71 138
e 71 173
e 71 186
e 72 164
e 73 102
e 73 125
e 73 126
e 74 85
e 74 121
e 74 164
e 75 76
e 75 77
e 75 136
e 76 114
e 76 208
e 77 92
e 77 136
e 77 146
e 77 210
e 78 114
e 78 120
e 78 154
e 79 82
e 80 85
e 80 123
e 80 124
e 81 83
e 81 86
e 81 93
e 81 155
e 81 192
e 82 111
e 82 113
e 82 131
e 82 148
e 83 86
e 83 93
e 83 97
e 83 132
e 84 89
e 84 134
e 84 162
e 84 167
e 84 189
e 85 121
e 85 164
e 86 93
e 86 150
e 87 96
e 87 118
e 87 124
e 88 127
e 88 137
e 88 149
e 89 162
e 90 144
e 90 151
e 90 152
e 92 104
e 92 105
e 92 106
e 92 146
e 92 210
e 93 120
e 93 192
e 94 109
e 94 142
e 96 128
e 96 186
e 96 188
e 97 132
e 97 191
e 98 145
e 98 156
e 98 187
e 98 213
e 98 214
e 98 218
e 99 107
e 99 112
e 100 127
e 100 129
e 100 160
e 100 161
e 101 196
e 102 125
e 103 111
e 103 131
e 104 105
e 104 106
e 105 106
e 105 129
e 105 136
e 106 129
e 106 136
e 107 112
e 108 136
e 108 139
e 108 143
e 108 153
e 109 142
e 111 131
e 112 130
e 113 135
e 113 148
e 113 154
e 113 180
e 114 178
e 114 205
e 116 117
e 116 121
e 117 121
e 118 166
e 118 173
e 119 179
e 119 182
e 120 154
e 121 164
e 122 128
e 123 124
e 123 138
e 123 188
e 129 136
e 129 146
e 129 161
e 130 134
e 130 203
e 131 155
e 131 158
e 133 157
e 133 168
e 136 139
e 136 143
e 138 186
e 139 143
e 139 160
e 139 209
e 140 148
e 140 198
e 141 171
e 142 144
e 143 153
e 143 160
e 144 151
e 144 152
e 145 185
e 145 213
e 145 214
e 146 199
e 146 210
e 147 161
e 150 183
e 151 152
e 151 206
e 152 206
e 153 175
e 153 201
e 153 202
e 154 180
e 155 158
e 156 187
e 157 168
e 163 190
e 165 181
e 165 194
e 168 189
e 170 197
e 172 174
e 175 201
e 175 202
e 176 177
e 178 205
e 179 182
e 179 204
e 181 194
e 186 188
e 201 202
e 211 212
e 213 214
e 215 216
e 215 217
e 216 217
